0 482548 
1 482002 
2 480772 
3 480396 
4 476232 
5 476142 
6 475164 
7 473802 
8 472788 
9 472362 
10 471590 
11 471084 
12 469694 
13 465762 
14 464814 
15 459772 
16 457218 
17 456892 
18 454092 
19 452666 
20 447568 
21 444868 
22 444626 
23 442276 
24 439946 
25 435270 
26 435000 
27 434192 
28 432504 
29 430934 
30 430274 
31 426436 
32 425494 
33 416552 
34 414710 
35 413940 
36 411316 
37 406136 
38 406054 
39 406054 

